branch-and-cut/resultados/I080/i080-011.sol
1479
9
2 49
37 49
49 16
37 6
19 16
3 19
5 16
37 4
1 19
